c Sudoku solution
p cnf 729 0
217 0
222 0
259 0
264 0
298 0
335 0
381 0
397 0
456 0
461 0
487 0
571 0
586 0
599 0
619 0
449 0
658 0
478 0
738 0
765 0
794 0
811 0
991 0
847 0
895 0
196 0
915 0
425 0
954 0
976 0
777 0
352 0
853 0
751 0
182 0
872 0
684 0
675 0
544 0
555 0
157 0
145 0
241 0
236 0
716 0
932 0
927 0
723 0
742 0
948 0
866 0
969 0
789 0
983 0
888 0
626 0
631 0
667 0
121 0
528 0
537 0
643 0
562 0
513 0
412 0
434 0
493 0
692 0
133 0
329 0
168 0
114 0
318 0
179 0
374 0
824 0
839 0
346 0
363 0
273 0
285 0
